outputs/case_40.model.txt
credit_card_circulating_interest_rate_percent = 10
third_party_data_usage_stopped = False
third_party_data_stop_request = False
internal_control_system_executed = True
internal_control_system_established = True
internal_handling_system_executed = True
internal_operation_system_executed = True
internal_handling_system_established = True
internal_operation_system_established = True
internal_operation_executed = True
internal_handling_established = True
no_violent_or_harassing_collection = True
collection_only_to_cardholder_and_guarantor = True
internal_operation_ok = True
internal_handling_ok = True
credit_card_interest_rate_compliant = True
internal_control_executed = True
third_party_data_purpose_explained = True
internal_operation_established = True
internal_handling_executed = True
internal_control_established = True
applicant_statement_compliant = True
applicant_signature_valid = True
credit_card_business_permitted = True
phone_collection_with_recording_and_data_retention = True
collection_not_violating_public_interest = True
credit_card_business_license_granted = True
third_party_data_mandatory = False
third_party_data_used_for_credit_or_collection = False
field_collection_with_identification = True
applicant_confirmed = True
interest_and_fees_disclosed = True
penalty = False
collection_practices_compliant = True
internal_control_ok = True
proxy_signature_for_supplementary_card = False
third_party_data_provision_compliant = True